data;

param w := 30;
param n := 29;
param min_h := 60;
param max_h := 89;

set BLOCKS := 1 2 3 4 5 6 7 8 9 10 11 12 13 14 15 16 17 18 19 20 21 22 23 24 25 26 27 28 29 ;

param:	width	height :=
	1	10	19
	2	7	25
	3	6	24
	4	9	16
	5	6	18
	6	5	21
	7	4	23
	8	7	13
	9	7	12
	10	9	9
	11	10	7
	12	6	11
	13	6	10
	14	11	5
	15	7	7
	16	11	4
	17	4	10
	18	8	5
	19	7	5
	20	6	5
	21	2	12
	22	3	6
	23	3	5
	24	2	7
	25	4	2
	26	4	2
	27	1	4
	28	4	1
	29	2	1;